(set-logic ALL)
(set-option :produce-models true)
(declare-sort BoundSet 0)
(declare-sort UnboundSet 0)
(declare-fun IsWarned (BoundSet) Bool)
(declare-fun IsCausedBy (BoundSet) Bool)
(declare-fun IsIn (BoundSet) Bool)
(declare-fun Isn'tOccurring (BoundSet) Bool)
(declare-fun IsOccurring (BoundSet) Bool)
(assert (not (=> (exists ((c BoundSet)) (exists ((a BoundSet)) (exists ((b BoundSet)) (and (IsWarned a) (and (IsCausedBy b) (IsIn c)))))) (exists ((e BoundSet)) (exists ((f BoundSet)) (and (Isn'tOccurring f) (not (IsOccurring e))))))))
(check-sat)
(get-model)